DATASET = "thpack1";
INSTANCE = "097";

WIDTH = 233;
HEIGHT = 220;
LENGTH = 587;

NO_OF_SHAPES = 3;
size = [|
  74,60,32 |
  100,50,43 |
  95,74,42 |
|];

verticality = [|
  0,1,1 |
  0,1,1 |
  0,1,1 |
|];

box_count = [
  48,
  50,
  42,
];
